\\ Objective function for all utilities and processes 
 
Minimize 

obj: 0.0 ch1_enwk_4nc_1_m_perc + 0.0 ch1_enwk_4nc_1_y + 0.0 ch2_enwk_4nc_1_m_perc + 0.0 ch2_enwk_4nc_1_y + 0.0 ch3_enwk_4nc_1_m_perc + 0.0 ch3_enwk_4nc_1_y + 0.017967538 ch1_ep_4nc_1_m_flow + 0.208225612 ch1_ep_4nc_1_y + 0.259072758 ch1_ep_4nc_1_delp + 0.032272906000000004 ch2_ep_4nc_1_m_flow + 1.518957414 ch2_ep_4nc_1_y + 0.79445631 ch2_ep_4nc_1_delp + 0.032272906000000004 ch3_ep_4nc_1_m_flow + 1.518957414 ch3_ep_4nc_1_y + 0.79445631 ch3_ep_4nc_1_delp + 0.0 sp1_temp_4nc_t_inout + 0.0 sp1_temp_4nc_y + 0.0 ice_nwk_4nc_1_m_perc + 0.0 ice_nwk_4nc_1_y + 0.0 gv2_nwk_4nc_1_m_perc + 0.0 gv2_nwk_4nc_1_y + 0.0 hsb_nwk_4nc_1_m_perc + 0.0 hsb_nwk_4nc_1_y + 0.0 tro_nwk_4nc_1_m_perc + 0.0 tro_nwk_4nc_1_y + 0.0 pfa_nwk_4nc_1_m_perc + 0.0 pfa_nwk_4nc_1_y + 0.0 ser_nwk_4nc_1_m_perc + 0.0 ser_nwk_4nc_1_y + 0.0 para_nwk_con_4nc_delp + 0.0 para_nwk_con_4nc_y + 0.05916007784270439 dist_np_4nc_combi_0_0_m_flow + 3.495743360094252 dist_np_4nc_combi_0_0_y + 0.8909347520947662 dist_np_4nc_combi_0_0_delp + 0.095006738985388 dist_np_4nc_combi_1_0_m_flow + 0.7291675439780576 dist_np_4nc_combi_1_0_y + 0.4659878716144978 dist_np_4nc_combi_1_0_delp + 0.08836866838225241 dist_np_4nc_combi_2_0_m_flow + 6.184809806912327 dist_np_4nc_combi_2_0_y + 0.6950652215603353 dist_np_4nc_combi_2_0_delp + 0.09451397631785663 dist_np_4nc_combi_3_0_m_flow + 12.031048423773882 dist_np_4nc_combi_3_0_y + 1.4109045001638756 dist_np_4nc_combi_3_0_delp + 0.08746920085292287 dist_np_4nc_combi_4_0_m_flow + 30.918686396394662 dist_np_4nc_combi_4_0_y + 2.7800001674126125 dist_np_4nc_combi_4_0_delp + 0.06870694371026757 dist_np_4nc_combi_5_0_m_flow + 0.4113596061435239 dist_np_4nc_combi_5_0_y + 0.3693427012085625 dist_np_4nc_combi_5_0_delp + 0.05916007784270439 dist_np_4nc_combi_6_0_m_flow + 3.495743360094252 dist_np_4nc_combi_6_0_y + 0.8909347520947662 dist_np_4nc_combi_6_0_delp + 532.019099117558 ch1_4nc_1_evap_u0 + 82.7810200423562 ch1_4nc_1_evap_u0_y + 532.019099117558 ch1_4nc_1_evap_v0 + 0.0 ch1_4nc_1_evap_v0_y - 532.019099117558 ch1_4nc_1_evap_u1 + 1146.8192182774721 ch1_4nc_1_evap_u1_y + 1596.057297352674 ch1_4nc_1_evap_v1 + 0.0 ch1_4nc_1_evap_v1_y + 425.52964266397174 ch2_4nc_1_evap_u0 + 400.08017797714865 ch2_4nc_1_evap_u0_y + 425.52964266397174 ch2_4nc_1_evap_v0 + 0.0 ch2_4nc_1_evap_v0_y - 425.5296426639717 ch2_4nc_1_evap_u1 + 1251.1394633050922 ch2_4nc_1_evap_u1_y + 1276.5889279919152 ch2_4nc_1_evap_v1 + 0.0 ch2_4nc_1_evap_v1_y + 425.52964266397174 ch3_4nc_1_evap_u0 + 400.08017797714865 ch3_4nc_1_evap_u0_y + 425.52964266397174 ch3_4nc_1_evap_v0 + 0.0 ch3_4nc_1_evap_v0_y - 425.5296426639717 ch3_4nc_1_evap_u1 + 1251.1394633050922 ch3_4nc_1_evap_u1_y + 1276.5889279919152 ch3_4nc_1_evap_v1 + 0.0 ch3_4nc_1_evap_v1_y + 0.0 cp_nwk_4nc_u0 + 0.0 cp_nwk_4nc_u0_y + 0.0 cp_nwk_4nc_v0 + 0.0 cp_nwk_4nc_v0_y + 0.0 cp_nwk_4nc_u1 + 0.0 cp_nwk_4nc_u1_y + 0.0 cp_nwk_4nc_v1 + 0.0 cp_nwk_4nc_v1_y + 0.0 gv2_ss_4nc_u0 + 0.0 gv2_ss_4nc_u0_y + 0.0 gv2_ss_4nc_v0 + 0.0 gv2_ss_4nc_v0_y + 0.0 gv2_ss_4nc_u1 + 0.0 gv2_ss_4nc_u1_y + 0.0 gv2_ss_4nc_v1 + 0.0 gv2_ss_4nc_v1_y + 0.0 hsb_ss_4nc_u0 + 0.0 hsb_ss_4nc_u0_y + 0.0 hsb_ss_4nc_v0 + 0.0 hsb_ss_4nc_v0_y + 0.0 hsb_ss_4nc_u1 + 0.0 hsb_ss_4nc_u1_y + 0.0 hsb_ss_4nc_v1 + 0.0 hsb_ss_4nc_v1_y + 0.0 pfa_ss_4nc_u0 + 0.0 pfa_ss_4nc_u0_y + 0.0 pfa_ss_4nc_v0 + 0.0 pfa_ss_4nc_v0_y + 0.0 pfa_ss_4nc_u1 + 0.0 pfa_ss_4nc_u1_y + 0.0 pfa_ss_4nc_v1 + 0.0 pfa_ss_4nc_v1_y + 0.0 ser_ss_4nc_u0 + 0.0 ser_ss_4nc_u0_y + 0.0 ser_ss_4nc_v0 + 0.0 ser_ss_4nc_v0_y + 0.0 ser_ss_4nc_u1 + 0.0 ser_ss_4nc_u1_y + 0.0 ser_ss_4nc_v1 + 0.0 ser_ss_4nc_v1_y + 0.0 ch_e_f_c_4nc_m_perc + 0.0 ch_e_f_c_4nc_y + 0.0 ch_evap_ret_4nc_t_in + 0.0 ch_evap_ret_4nc_y
 
Subject To 
 
\\Writing Fmin, Fmax constraints for utilities linear 
 
c1: 0.0 ch1_enwk_4nc_1_y - ch1_enwk_4nc_1_m_perc <= 0
c2: ch1_enwk_4nc_1_m_perc - 1.0 ch1_enwk_4nc_1_y <= 0
c3: 0.0 ch2_enwk_4nc_1_y - ch2_enwk_4nc_1_m_perc <= 0
c4: ch2_enwk_4nc_1_m_perc - 1.0 ch2_enwk_4nc_1_y <= 0
c5: 0.0 ch3_enwk_4nc_1_y - ch3_enwk_4nc_1_m_perc <= 0
c6: ch3_enwk_4nc_1_m_perc - 1.0 ch3_enwk_4nc_1_y <= 0
c7: 0.0 ch1_ep_4nc_1_y - ch1_ep_4nc_1_m_flow <= 0
c8: ch1_ep_4nc_1_m_flow - 218.3903135 ch1_ep_4nc_1_y <= 0
c9: 0.0 ch1_ep_4nc_1_y - ch1_ep_4nc_1_delp <= 0
c10: ch1_ep_4nc_1_delp - 15.0 ch1_ep_4nc_1_y <= 0
c11: 0.0 ch2_ep_4nc_1_y - ch2_ep_4nc_1_m_flow <= 0
c12: ch2_ep_4nc_1_m_flow - 820.4531779 ch2_ep_4nc_1_y <= 0
c13: 0.0 ch2_ep_4nc_1_y - ch2_ep_4nc_1_delp <= 0
c14: ch2_ep_4nc_1_delp - 23.0 ch2_ep_4nc_1_y <= 0
c15: 0.0 ch3_ep_4nc_1_y - ch3_ep_4nc_1_m_flow <= 0
c16: ch3_ep_4nc_1_m_flow - 820.4531779 ch3_ep_4nc_1_y <= 0
c17: 0.0 ch3_ep_4nc_1_y - ch3_ep_4nc_1_delp <= 0
c18: ch3_ep_4nc_1_delp - 23.0 ch3_ep_4nc_1_y <= 0
c19: 0 sp1_temp_4nc_y - sp1_temp_4nc_t_inout <= 0
c20: sp1_temp_4nc_t_inout - 1 sp1_temp_4nc_y <= 0
c21: 0.0 ice_nwk_4nc_1_y - ice_nwk_4nc_1_m_perc <= 0
c22: ice_nwk_4nc_1_m_perc - 1.0 ice_nwk_4nc_1_y <= 0
c23: 0.0 gv2_nwk_4nc_1_y - gv2_nwk_4nc_1_m_perc <= 0
c24: gv2_nwk_4nc_1_m_perc - 1.0 gv2_nwk_4nc_1_y <= 0
c25: 0.0 hsb_nwk_4nc_1_y - hsb_nwk_4nc_1_m_perc <= 0
c26: hsb_nwk_4nc_1_m_perc - 1.0 hsb_nwk_4nc_1_y <= 0
c27: 0.0 tro_nwk_4nc_1_y - tro_nwk_4nc_1_m_perc <= 0
c28: tro_nwk_4nc_1_m_perc - 1.0 tro_nwk_4nc_1_y <= 0
c29: 0.0 pfa_nwk_4nc_1_y - pfa_nwk_4nc_1_m_perc <= 0
c30: pfa_nwk_4nc_1_m_perc - 1.0 pfa_nwk_4nc_1_y <= 0
c31: 0.0 ser_nwk_4nc_1_y - ser_nwk_4nc_1_m_perc <= 0
c32: ser_nwk_4nc_1_m_perc - 1.0 ser_nwk_4nc_1_y <= 0
c33: 0 para_nwk_con_4nc_y - para_nwk_con_4nc_delp <= 0
c34: para_nwk_con_4nc_delp - 80 para_nwk_con_4nc_y <= 0
c35: 0.0 dist_np_4nc_combi_0_0_y - dist_np_4nc_combi_0_0_m_flow <= 0
c36: dist_np_4nc_combi_0_0_m_flow - 1128.8211815773864 dist_np_4nc_combi_0_0_y <= 0
c37: 0.0 dist_np_4nc_combi_0_0_y - dist_np_4nc_combi_0_0_delp <= 0
c38: dist_np_4nc_combi_0_0_delp - 40.0 dist_np_4nc_combi_0_0_y <= 0
c39: 0.0 dist_np_4nc_combi_1_0_y - dist_np_4nc_combi_1_0_m_flow <= 0
c40: dist_np_4nc_combi_1_0_m_flow - 778.9949418600381 dist_np_4nc_combi_1_0_y <= 0
c41: 0.0 dist_np_4nc_combi_1_0_y - dist_np_4nc_combi_1_0_delp <= 0
c42: dist_np_4nc_combi_1_0_delp - 50.0 dist_np_4nc_combi_1_0_y <= 0
c43: 0.0 dist_np_4nc_combi_2_0_y - dist_np_4nc_combi_2_0_m_flow <= 0
c44: dist_np_4nc_combi_2_0_m_flow - 1365.0266783562731 dist_np_4nc_combi_2_0_y <= 0
c45: 0.0 dist_np_4nc_combi_2_0_y - dist_np_4nc_combi_2_0_delp <= 0
c46: dist_np_4nc_combi_2_0_delp - 55.0 dist_np_4nc_combi_2_0_y <= 0
c47: 0.0 dist_np_4nc_combi_3_0_y - dist_np_4nc_combi_3_0_m_flow <= 0
c48: dist_np_4nc_combi_3_0_m_flow - 1699.6877800309853 dist_np_4nc_combi_3_0_y <= 0
c49: 0.0 dist_np_4nc_combi_3_0_y - dist_np_4nc_combi_3_0_delp <= 0
c50: dist_np_4nc_combi_3_0_delp - 65.0 dist_np_4nc_combi_3_0_y <= 0
c51: 0.0 dist_np_4nc_combi_4_0_y - dist_np_4nc_combi_4_0_m_flow <= 0
c52: dist_np_4nc_combi_4_0_m_flow - 2195.715661169962 dist_np_4nc_combi_4_0_y <= 0
c53: 0.0 dist_np_4nc_combi_4_0_y - dist_np_4nc_combi_4_0_delp <= 0
c54: dist_np_4nc_combi_4_0_delp - 75.0 dist_np_4nc_combi_4_0_y <= 0
c55: 0.0 dist_np_4nc_combi_5_0_y - dist_np_4nc_combi_5_0_m_flow <= 0
c56: dist_np_4nc_combi_5_0_m_flow - 632.3090700071897 dist_np_4nc_combi_5_0_y <= 0
c57: 0.0 dist_np_4nc_combi_5_0_y - dist_np_4nc_combi_5_0_delp <= 0
c58: dist_np_4nc_combi_5_0_delp - 40.0 dist_np_4nc_combi_5_0_y <= 0
c59: 0.0 dist_np_4nc_combi_6_0_y - dist_np_4nc_combi_6_0_m_flow <= 0
c60: dist_np_4nc_combi_6_0_m_flow - 1128.8211815773864 dist_np_4nc_combi_6_0_y <= 0
c61: 0.0 dist_np_4nc_combi_6_0_y - dist_np_4nc_combi_6_0_delp <= 0
c62: dist_np_4nc_combi_6_0_delp - 40.0 dist_np_4nc_combi_6_0_y <= 0

\\Writing Fmin, Fmax constraints for utilities bilinear 
 
c63: 0.0 ch1_4nc_1_evap_u0_y - ch1_4nc_1_evap_u0 <= 0
c64: ch1_4nc_1_evap_u0 - 1.0 ch1_4nc_1_evap_u0_y <= 0
c65: -1.0 ch1_4nc_1_evap_v0_y - ch1_4nc_1_evap_v0 <= 0
c66: ch1_4nc_1_evap_v0 - 0.0 ch1_4nc_1_evap_v0_y <= 0
c67: 1.0 ch1_4nc_1_evap_u1_y - ch1_4nc_1_evap_u1 <= 0
c68: ch1_4nc_1_evap_u1 - 2.0 ch1_4nc_1_evap_u1_y <= 0
c69: 0.0 ch1_4nc_1_evap_v1_y - ch1_4nc_1_evap_v1 <= 0
c70: ch1_4nc_1_evap_v1 - 1.0 ch1_4nc_1_evap_v1_y <= 0
c71: 0.0 ch2_4nc_1_evap_u0_y - ch2_4nc_1_evap_u0 <= 0
c72: ch2_4nc_1_evap_u0 - 1.0 ch2_4nc_1_evap_u0_y <= 0
c73: -1.0 ch2_4nc_1_evap_v0_y - ch2_4nc_1_evap_v0 <= 0
c74: ch2_4nc_1_evap_v0 - 0.0 ch2_4nc_1_evap_v0_y <= 0
c75: 1.0 ch2_4nc_1_evap_u1_y - ch2_4nc_1_evap_u1 <= 0
c76: ch2_4nc_1_evap_u1 - 2.0 ch2_4nc_1_evap_u1_y <= 0
c77: 0.0 ch2_4nc_1_evap_v1_y - ch2_4nc_1_evap_v1 <= 0
c78: ch2_4nc_1_evap_v1 - 1.0 ch2_4nc_1_evap_v1_y <= 0
c79: 0.0 ch3_4nc_1_evap_u0_y - ch3_4nc_1_evap_u0 <= 0
c80: ch3_4nc_1_evap_u0 - 1.0 ch3_4nc_1_evap_u0_y <= 0
c81: -1.0 ch3_4nc_1_evap_v0_y - ch3_4nc_1_evap_v0 <= 0
c82: ch3_4nc_1_evap_v0 - 0.0 ch3_4nc_1_evap_v0_y <= 0
c83: 1.0 ch3_4nc_1_evap_u1_y - ch3_4nc_1_evap_u1 <= 0
c84: ch3_4nc_1_evap_u1 - 2.0 ch3_4nc_1_evap_u1_y <= 0
c85: 0.0 ch3_4nc_1_evap_v1_y - ch3_4nc_1_evap_v1 <= 0
c86: ch3_4nc_1_evap_v1 - 1.0 ch3_4nc_1_evap_v1_y <= 0
c87: 0.0 cp_nwk_4nc_u0_y - cp_nwk_4nc_u0 <= 0
c88: cp_nwk_4nc_u0 - 1.0 cp_nwk_4nc_u0_y <= 0
c89: -1.0 cp_nwk_4nc_v0_y - cp_nwk_4nc_v0 <= 0
c90: cp_nwk_4nc_v0 - 0.0 cp_nwk_4nc_v0_y <= 0
c91: 1.0 cp_nwk_4nc_u1_y - cp_nwk_4nc_u1 <= 0
c92: cp_nwk_4nc_u1 - 2.0 cp_nwk_4nc_u1_y <= 0
c93: 0.0 cp_nwk_4nc_v1_y - cp_nwk_4nc_v1 <= 0
c94: cp_nwk_4nc_v1 - 1.0 cp_nwk_4nc_v1_y <= 0
c95: 0.0 gv2_ss_4nc_u0_y - gv2_ss_4nc_u0 <= 0
c96: gv2_ss_4nc_u0 - 1.0 gv2_ss_4nc_u0_y <= 0
c97: -1.0 gv2_ss_4nc_v0_y - gv2_ss_4nc_v0 <= 0
c98: gv2_ss_4nc_v0 - 0.0 gv2_ss_4nc_v0_y <= 0
c99: 1.0 gv2_ss_4nc_u1_y - gv2_ss_4nc_u1 <= 0
c100: gv2_ss_4nc_u1 - 2.0 gv2_ss_4nc_u1_y <= 0
c101: 0.0 gv2_ss_4nc_v1_y - gv2_ss_4nc_v1 <= 0
c102: gv2_ss_4nc_v1 - 1.0 gv2_ss_4nc_v1_y <= 0
c103: 0.0 hsb_ss_4nc_u0_y - hsb_ss_4nc_u0 <= 0
c104: hsb_ss_4nc_u0 - 1.0 hsb_ss_4nc_u0_y <= 0
c105: -1.0 hsb_ss_4nc_v0_y - hsb_ss_4nc_v0 <= 0
c106: hsb_ss_4nc_v0 - 0.0 hsb_ss_4nc_v0_y <= 0
c107: 1.0 hsb_ss_4nc_u1_y - hsb_ss_4nc_u1 <= 0
c108: hsb_ss_4nc_u1 - 2.0 hsb_ss_4nc_u1_y <= 0
c109: 0.0 hsb_ss_4nc_v1_y - hsb_ss_4nc_v1 <= 0
c110: hsb_ss_4nc_v1 - 1.0 hsb_ss_4nc_v1_y <= 0
c111: 0.0 pfa_ss_4nc_u0_y - pfa_ss_4nc_u0 <= 0
c112: pfa_ss_4nc_u0 - 1.0 pfa_ss_4nc_u0_y <= 0
c113: -1.0 pfa_ss_4nc_v0_y - pfa_ss_4nc_v0 <= 0
c114: pfa_ss_4nc_v0 - 0.0 pfa_ss_4nc_v0_y <= 0
c115: 1.0 pfa_ss_4nc_u1_y - pfa_ss_4nc_u1 <= 0
c116: pfa_ss_4nc_u1 - 2.0 pfa_ss_4nc_u1_y <= 0
c117: 0.0 pfa_ss_4nc_v1_y - pfa_ss_4nc_v1 <= 0
c118: pfa_ss_4nc_v1 - 1.0 pfa_ss_4nc_v1_y <= 0
c119: 0.0 ser_ss_4nc_u0_y - ser_ss_4nc_u0 <= 0
c120: ser_ss_4nc_u0 - 1.0 ser_ss_4nc_u0_y <= 0
c121: -1.0 ser_ss_4nc_v0_y - ser_ss_4nc_v0 <= 0
c122: ser_ss_4nc_v0 - 0.0 ser_ss_4nc_v0_y <= 0
c123: 1.0 ser_ss_4nc_u1_y - ser_ss_4nc_u1 <= 0
c124: ser_ss_4nc_u1 - 2.0 ser_ss_4nc_u1_y <= 0
c125: 0.0 ser_ss_4nc_v1_y - ser_ss_4nc_v1 <= 0
c126: ser_ss_4nc_v1 - 1.0 ser_ss_4nc_v1_y <= 0

\\Writing the fmin and fmax constraint in relation to x and y for utilities 
 
c127: 0 ch1_4nc_1_evap_y - ch1_4nc_1_evap_u0 - ch1_4nc_1_evap_u1 - ch1_4nc_1_evap_v0 - ch1_4nc_1_evap_v1 <= 0
c128: ch1_4nc_1_evap_u0 + ch1_4nc_1_evap_u1 + ch1_4nc_1_evap_v0 + ch1_4nc_1_evap_v1 - 2 ch1_4nc_1_evap_y <= 0
c129: 0 ch1_4nc_1_evap_y - ch1_4nc_1_evap_u0 - ch1_4nc_1_evap_u1 + ch1_4nc_1_evap_v0 + ch1_4nc_1_evap_v1 <= 0
c130: ch1_4nc_1_evap_u0 + ch1_4nc_1_evap_u1 - ch1_4nc_1_evap_v0 - ch1_4nc_1_evap_v1 - 2 ch1_4nc_1_evap_y <= 0
c131: 0 ch2_4nc_1_evap_y - ch2_4nc_1_evap_u0 - ch2_4nc_1_evap_u1 - ch2_4nc_1_evap_v0 - ch2_4nc_1_evap_v1 <= 0
c132: ch2_4nc_1_evap_u0 + ch2_4nc_1_evap_u1 + ch2_4nc_1_evap_v0 + ch2_4nc_1_evap_v1 - 2 ch2_4nc_1_evap_y <= 0
c133: 0 ch2_4nc_1_evap_y - ch2_4nc_1_evap_u0 - ch2_4nc_1_evap_u1 + ch2_4nc_1_evap_v0 + ch2_4nc_1_evap_v1 <= 0
c134: ch2_4nc_1_evap_u0 + ch2_4nc_1_evap_u1 - ch2_4nc_1_evap_v0 - ch2_4nc_1_evap_v1 - 2 ch2_4nc_1_evap_y <= 0
c135: 0 ch3_4nc_1_evap_y - ch3_4nc_1_evap_u0 - ch3_4nc_1_evap_u1 - ch3_4nc_1_evap_v0 - ch3_4nc_1_evap_v1 <= 0
c136: ch3_4nc_1_evap_u0 + ch3_4nc_1_evap_u1 + ch3_4nc_1_evap_v0 + ch3_4nc_1_evap_v1 - 2 ch3_4nc_1_evap_y <= 0
c137: 0 ch3_4nc_1_evap_y - ch3_4nc_1_evap_u0 - ch3_4nc_1_evap_u1 + ch3_4nc_1_evap_v0 + ch3_4nc_1_evap_v1 <= 0
c138: ch3_4nc_1_evap_u0 + ch3_4nc_1_evap_u1 - ch3_4nc_1_evap_v0 - ch3_4nc_1_evap_v1 - 2 ch3_4nc_1_evap_y <= 0
c139: 0 cp_nwk_4nc_y - cp_nwk_4nc_u0 - cp_nwk_4nc_u1 - cp_nwk_4nc_v0 - cp_nwk_4nc_v1 <= 0
c140: cp_nwk_4nc_u0 + cp_nwk_4nc_u1 + cp_nwk_4nc_v0 + cp_nwk_4nc_v1 - 2 cp_nwk_4nc_y <= 0
c141: 0 cp_nwk_4nc_y - cp_nwk_4nc_u0 - cp_nwk_4nc_u1 + cp_nwk_4nc_v0 + cp_nwk_4nc_v1 <= 0
c142: cp_nwk_4nc_u0 + cp_nwk_4nc_u1 - cp_nwk_4nc_v0 - cp_nwk_4nc_v1 - 2 cp_nwk_4nc_y <= 0
c143: 0 gv2_ss_4nc_y - gv2_ss_4nc_u0 - gv2_ss_4nc_u1 - gv2_ss_4nc_v0 - gv2_ss_4nc_v1 <= 0
c144: gv2_ss_4nc_u0 + gv2_ss_4nc_u1 + gv2_ss_4nc_v0 + gv2_ss_4nc_v1 - 2 gv2_ss_4nc_y <= 0
c145: 0 gv2_ss_4nc_y - gv2_ss_4nc_u0 - gv2_ss_4nc_u1 + gv2_ss_4nc_v0 + gv2_ss_4nc_v1 <= 0
c146: gv2_ss_4nc_u0 + gv2_ss_4nc_u1 - gv2_ss_4nc_v0 - gv2_ss_4nc_v1 - 2 gv2_ss_4nc_y <= 0
c147: 0 hsb_ss_4nc_y - hsb_ss_4nc_u0 - hsb_ss_4nc_u1 - hsb_ss_4nc_v0 - hsb_ss_4nc_v1 <= 0
c148: hsb_ss_4nc_u0 + hsb_ss_4nc_u1 + hsb_ss_4nc_v0 + hsb_ss_4nc_v1 - 2 hsb_ss_4nc_y <= 0
c149: 0 hsb_ss_4nc_y - hsb_ss_4nc_u0 - hsb_ss_4nc_u1 + hsb_ss_4nc_v0 + hsb_ss_4nc_v1 <= 0
c150: hsb_ss_4nc_u0 + hsb_ss_4nc_u1 - hsb_ss_4nc_v0 - hsb_ss_4nc_v1 - 2 hsb_ss_4nc_y <= 0
c151: 0 pfa_ss_4nc_y - pfa_ss_4nc_u0 - pfa_ss_4nc_u1 - pfa_ss_4nc_v0 - pfa_ss_4nc_v1 <= 0
c152: pfa_ss_4nc_u0 + pfa_ss_4nc_u1 + pfa_ss_4nc_v0 + pfa_ss_4nc_v1 - 2 pfa_ss_4nc_y <= 0
c153: 0 pfa_ss_4nc_y - pfa_ss_4nc_u0 - pfa_ss_4nc_u1 + pfa_ss_4nc_v0 + pfa_ss_4nc_v1 <= 0
c154: pfa_ss_4nc_u0 + pfa_ss_4nc_u1 - pfa_ss_4nc_v0 - pfa_ss_4nc_v1 - 2 pfa_ss_4nc_y <= 0
c155: 0 ser_ss_4nc_y - ser_ss_4nc_u0 - ser_ss_4nc_u1 - ser_ss_4nc_v0 - ser_ss_4nc_v1 <= 0
c156: ser_ss_4nc_u0 + ser_ss_4nc_u1 + ser_ss_4nc_v0 + ser_ss_4nc_v1 - 2 ser_ss_4nc_y <= 0
c157: 0 ser_ss_4nc_y - ser_ss_4nc_u0 - ser_ss_4nc_u1 + ser_ss_4nc_v0 + ser_ss_4nc_v1 <= 0
c158: ser_ss_4nc_u0 + ser_ss_4nc_u1 - ser_ss_4nc_v0 - ser_ss_4nc_v1 - 2 ser_ss_4nc_y <= 0

\\Writing Fmin, Fmax constraints for process linear 
 
c159: ch_e_f_c_4nc_m_perc = 1
c160: ch_e_f_c_4nc_y = 1.0
c161: ch_evap_ret_4nc_t_in = 1
c162: ch_evap_ret_4nc_y = 1.0

\\Writing Fmin, Fmax constraints for process bilinear 
 

\\Writing the fmin and fmax constraint in relation to x and y for processes 
 

\\Writing stream constraints 
 
c163: 590.0 ch1_enwk_4nc_1_m_perc + 0.0 ch1_enwk_4nc_1_y - 295.0 ch1_4nc_1_evap_u0 - 0.0 ch1_4nc_1_evap_u0_y - 295.0 ch1_4nc_1_evap_v0 - 0.0 ch1_4nc_1_evap_v0_y - 295.0 ch1_4nc_1_evap_u1 - 0.0 ch1_4nc_1_evap_u1_y - 295.0 ch1_4nc_1_evap_v1 - 0.0 ch1_4nc_1_evap_v1_y <= 0
c164: 590.0 ch2_enwk_4nc_1_m_perc + 0.0 ch2_enwk_4nc_1_y - 295.0 ch2_4nc_1_evap_u0 - 0.0 ch2_4nc_1_evap_u0_y - 295.0 ch2_4nc_1_evap_v0 - 0.0 ch2_4nc_1_evap_v0_y - 295.0 ch2_4nc_1_evap_u1 - 0.0 ch2_4nc_1_evap_u1_y - 295.0 ch2_4nc_1_evap_v1 - 0.0 ch2_4nc_1_evap_v1_y <= 0
c165: 590.0 ch3_enwk_4nc_1_m_perc + 0.0 ch3_enwk_4nc_1_y - 295.0 ch3_4nc_1_evap_u0 - 0.0 ch3_4nc_1_evap_u0_y - 295.0 ch3_4nc_1_evap_v0 - 0.0 ch3_4nc_1_evap_v0_y - 295.0 ch3_4nc_1_evap_u1 - 0.0 ch3_4nc_1_evap_u1_y - 295.0 ch3_4nc_1_evap_v1 - 0.0 ch3_4nc_1_evap_v1_y <= 0
c166: 30.0 sp1_temp_4nc_t_inout + 273.15 sp1_temp_4nc_y - 140.5375 ch1_4nc_1_evap_u0 - 0.0 ch1_4nc_1_evap_u0_y - 140.5375 ch1_4nc_1_evap_v0 - 0.0 ch1_4nc_1_evap_v0_y - 147.4625 ch1_4nc_1_evap_u1 + 6.925000000000011 ch1_4nc_1_evap_u1_y - 133.61249999999998 ch1_4nc_1_evap_v1 - 0.0 ch1_4nc_1_evap_v1_y - 140.5375 ch2_4nc_1_evap_u0 - 0.0 ch2_4nc_1_evap_u0_y - 140.5375 ch2_4nc_1_evap_v0 - 0.0 ch2_4nc_1_evap_v0_y - 147.4625 ch2_4nc_1_evap_u1 + 6.925000000000011 ch2_4nc_1_evap_u1_y - 133.61249999999998 ch2_4nc_1_evap_v1 - 0.0 ch2_4nc_1_evap_v1_y - 140.5375 ch3_4nc_1_evap_u0 - 0.0 ch3_4nc_1_evap_u0_y - 140.5375 ch3_4nc_1_evap_v0 - 0.0 ch3_4nc_1_evap_v0_y - 147.4625 ch3_4nc_1_evap_u1 + 6.925000000000011 ch3_4nc_1_evap_u1_y - 133.61249999999998 ch3_4nc_1_evap_v1 - 0.0 ch3_4nc_1_evap_v1_y >= 0
c167: 1.0 ch1_ep_4nc_1_m_flow + 0.0 ch1_ep_4nc_1_y + 0.0 ch1_ep_4nc_1_delp - 590.0 ch1_enwk_4nc_1_m_perc - 0.0 ch1_enwk_4nc_1_y <= 0
c168: 1.0 ch2_ep_4nc_1_m_flow + 0.0 ch2_ep_4nc_1_y + 0.0 ch2_ep_4nc_1_delp - 590.0 ch2_enwk_4nc_1_m_perc - 0.0 ch2_enwk_4nc_1_y <= 0
c169: 1.0 ch3_ep_4nc_1_m_flow + 0.0 ch3_ep_4nc_1_y + 0.0 ch3_ep_4nc_1_delp - 590.0 ch3_enwk_4nc_1_m_perc - 0.0 ch3_enwk_4nc_1_y <= 0
c170: 0.0 ch1_ep_4nc_1_m_flow + 0.0 ch1_ep_4nc_1_y + 1.0 ch1_ep_4nc_1_delp - 18.755425003916685 ch1_enwk_4nc_1_m_perc - 2.2566673411303935 ch1_enwk_4nc_1_y >= 0
c171: 0.0 ch2_ep_4nc_1_m_flow + 0.0 ch2_ep_4nc_1_y + 1.0 ch2_ep_4nc_1_delp - 6.526582511376865 ch2_enwk_4nc_1_m_perc - 2.2566673411303952 ch2_enwk_4nc_1_y >= 0
c172: 0.0 ch3_ep_4nc_1_m_flow + 0.0 ch3_ep_4nc_1_y + 1.0 ch3_ep_4nc_1_delp - 6.526582511376865 ch3_enwk_4nc_1_m_perc - 2.2566673411303952 ch3_enwk_4nc_1_y >= 0
c173: 590.0 ice_nwk_4nc_1_m_perc + 0.0 ice_nwk_4nc_1_y + 590.0 tro_nwk_4nc_1_m_perc + 0.0 tro_nwk_4nc_1_y + 295.0 cp_nwk_4nc_u0 + 0.0 cp_nwk_4nc_u0_y + 295.0 cp_nwk_4nc_v0 + 0.0 cp_nwk_4nc_v0_y + 295.0 cp_nwk_4nc_u1 + 0.0 cp_nwk_4nc_u1_y + 295.0 cp_nwk_4nc_v1 + 0.0 cp_nwk_4nc_v1_y - 1.0 ch1_ep_4nc_1_m_flow - 0.0 ch1_ep_4nc_1_y - 0.0 ch1_ep_4nc_1_delp - 1.0 ch2_ep_4nc_1_m_flow - 0.0 ch2_ep_4nc_1_y - 0.0 ch2_ep_4nc_1_delp - 1.0 ch3_ep_4nc_1_m_flow - 0.0 ch3_ep_4nc_1_y - 0.0 ch3_ep_4nc_1_delp <= 0
c174: 15.0 cp_nwk_4nc_u0 + 273.15 cp_nwk_4nc_u0_y - 15.0 cp_nwk_4nc_v0 + 0.0 cp_nwk_4nc_v0_y + 15.0 cp_nwk_4nc_u1 + 273.15 cp_nwk_4nc_u1_y - 15.0 cp_nwk_4nc_v1 + 0.0 cp_nwk_4nc_v1_y - 30.0 sp1_temp_4nc_t_inout - 273.15 sp1_temp_4nc_y >= 0
c175: 2.0 gv2_ss_4nc_u0 + 274.15 gv2_ss_4nc_u0_y - 2.0 gv2_ss_4nc_v0 + 0.0 gv2_ss_4nc_v0_y + 2.0 gv2_ss_4nc_u1 + 274.15 gv2_ss_4nc_u1_y - 2.0 gv2_ss_4nc_v1 + 0.0 gv2_ss_4nc_v1_y - 30.0 sp1_temp_4nc_t_inout - 273.15 sp1_temp_4nc_y >= 0
c176: 2.0 hsb_ss_4nc_u0 + 274.15 hsb_ss_4nc_u0_y - 2.0 hsb_ss_4nc_v0 + 0.0 hsb_ss_4nc_v0_y + 2.0 hsb_ss_4nc_u1 + 274.15 hsb_ss_4nc_u1_y - 2.0 hsb_ss_4nc_v1 + 0.0 hsb_ss_4nc_v1_y - 30.0 sp1_temp_4nc_t_inout - 273.15 sp1_temp_4nc_y >= 0
c177: 2.0 pfa_ss_4nc_u0 + 274.15 pfa_ss_4nc_u0_y - 2.0 pfa_ss_4nc_v0 + 0.0 pfa_ss_4nc_v0_y + 2.0 pfa_ss_4nc_u1 + 274.15 pfa_ss_4nc_u1_y - 2.0 pfa_ss_4nc_v1 + 0.0 pfa_ss_4nc_v1_y - 30.0 sp1_temp_4nc_t_inout - 273.15 sp1_temp_4nc_y >= 0
c178: 2.0 ser_ss_4nc_u0 + 274.15 ser_ss_4nc_u0_y - 2.0 ser_ss_4nc_v0 + 0.0 ser_ss_4nc_v0_y + 2.0 ser_ss_4nc_u1 + 274.15 ser_ss_4nc_u1_y - 2.0 ser_ss_4nc_v1 + 0.0 ser_ss_4nc_v1_y - 30.0 sp1_temp_4nc_t_inout - 273.15 sp1_temp_4nc_y >= 0
c179: 590.0 gv2_nwk_4nc_1_m_perc + 0.0 gv2_nwk_4nc_1_y + 590.0 hsb_nwk_4nc_1_m_perc + 0.0 hsb_nwk_4nc_1_y - 590.0 ice_nwk_4nc_1_m_perc - 0.0 ice_nwk_4nc_1_y <= 0
c180: 295.0 gv2_ss_4nc_u0 + 0.0 gv2_ss_4nc_u0_y + 295.0 gv2_ss_4nc_v0 + 0.0 gv2_ss_4nc_v0_y + 295.0 gv2_ss_4nc_u1 + 0.0 gv2_ss_4nc_u1_y + 295.0 gv2_ss_4nc_v1 + 0.0 gv2_ss_4nc_v1_y - 590.0 gv2_nwk_4nc_1_m_perc - 0.0 gv2_nwk_4nc_1_y <= 0
c181: 1.0 para_nwk_con_4nc_delp + 0.0 para_nwk_con_4nc_y - 1.4112327993116036 ice_nwk_4nc_1_m_perc - 0.0 ice_nwk_4nc_1_y - 9.105464890427452 gv2_nwk_4nc_1_m_perc - 0.0 gv2_nwk_4nc_1_y >= 0
c182: 295.0 hsb_ss_4nc_u0 + 0.0 hsb_ss_4nc_u0_y + 295.0 hsb_ss_4nc_v0 + 0.0 hsb_ss_4nc_v0_y + 295.0 hsb_ss_4nc_u1 + 0.0 hsb_ss_4nc_u1_y + 295.0 hsb_ss_4nc_v1 + 0.0 hsb_ss_4nc_v1_y - 590.0 hsb_nwk_4nc_1_m_perc - 0.0 hsb_nwk_4nc_1_y <= 0
c183: 1.0 para_nwk_con_4nc_delp + 0.0 para_nwk_con_4nc_y - 1.4112327993116036 ice_nwk_4nc_1_m_perc - 0.0 ice_nwk_4nc_1_y - 469.21898165423005 hsb_nwk_4nc_1_m_perc - 0.0 hsb_nwk_4nc_1_y >= 0
c184: 590.0 pfa_nwk_4nc_1_m_perc + 0.0 pfa_nwk_4nc_1_y + 590.0 ser_nwk_4nc_1_m_perc + 0.0 ser_nwk_4nc_1_y - 590.0 tro_nwk_4nc_1_m_perc - 0.0 tro_nwk_4nc_1_y <= 0
c185: 295.0 pfa_ss_4nc_u0 + 0.0 pfa_ss_4nc_u0_y + 295.0 pfa_ss_4nc_v0 + 0.0 pfa_ss_4nc_v0_y + 295.0 pfa_ss_4nc_u1 + 0.0 pfa_ss_4nc_u1_y + 295.0 pfa_ss_4nc_v1 + 0.0 pfa_ss_4nc_v1_y - 590.0 pfa_nwk_4nc_1_m_perc - 0.0 pfa_nwk_4nc_1_y <= 0
c186: 1.0 para_nwk_con_4nc_delp + 0.0 para_nwk_con_4nc_y - 32.931808670462 tro_nwk_4nc_1_m_perc - 0.0 tro_nwk_4nc_1_y - 12.095561893669085 pfa_nwk_4nc_1_m_perc - 0.0 pfa_nwk_4nc_1_y >= 0
c187: 295.0 ser_ss_4nc_u0 + 0.0 ser_ss_4nc_u0_y + 295.0 ser_ss_4nc_v0 + 0.0 ser_ss_4nc_v0_y + 295.0 ser_ss_4nc_u1 + 0.0 ser_ss_4nc_u1_y + 295.0 ser_ss_4nc_v1 + 0.0 ser_ss_4nc_v1_y - 590.0 ser_nwk_4nc_1_m_perc - 0.0 ser_nwk_4nc_1_y <= 0
c188: 1.0 para_nwk_con_4nc_delp + 0.0 para_nwk_con_4nc_y - 32.931808670462 tro_nwk_4nc_1_m_perc - 0.0 tro_nwk_4nc_1_y - 29.72371496174053 ser_nwk_4nc_1_m_perc - 0.0 ser_nwk_4nc_1_y >= 0
c189: 1.0 dist_np_4nc_combi_0_0_m_flow + 0.0 dist_np_4nc_combi_0_0_y + 0.0 dist_np_4nc_combi_0_0_delp + 1.0 dist_np_4nc_combi_1_0_m_flow + 0.0 dist_np_4nc_combi_1_0_y + 0.0 dist_np_4nc_combi_1_0_delp + 1.0 dist_np_4nc_combi_2_0_m_flow + 0.0 dist_np_4nc_combi_2_0_y + 0.0 dist_np_4nc_combi_2_0_delp + 1.0 dist_np_4nc_combi_3_0_m_flow + 0.0 dist_np_4nc_combi_3_0_y + 0.0 dist_np_4nc_combi_3_0_delp + 1.0 dist_np_4nc_combi_4_0_m_flow + 0.0 dist_np_4nc_combi_4_0_y + 0.0 dist_np_4nc_combi_4_0_delp + 1.0 dist_np_4nc_combi_5_0_m_flow + 0.0 dist_np_4nc_combi_5_0_y + 0.0 dist_np_4nc_combi_5_0_delp + 1.0 dist_np_4nc_combi_6_0_m_flow + 0.0 dist_np_4nc_combi_6_0_y + 0.0 dist_np_4nc_combi_6_0_delp - 295.0 gv2_ss_4nc_u0 - 0.0 gv2_ss_4nc_u0_y - 295.0 gv2_ss_4nc_v0 - 0.0 gv2_ss_4nc_v0_y - 295.0 gv2_ss_4nc_u1 - 0.0 gv2_ss_4nc_u1_y - 295.0 gv2_ss_4nc_v1 - 0.0 gv2_ss_4nc_v1_y - 295.0 hsb_ss_4nc_u0 - 0.0 hsb_ss_4nc_u0_y - 295.0 hsb_ss_4nc_v0 - 0.0 hsb_ss_4nc_v0_y - 295.0 hsb_ss_4nc_u1 - 0.0 hsb_ss_4nc_u1_y - 295.0 hsb_ss_4nc_v1 - 0.0 hsb_ss_4nc_v1_y - 295.0 pfa_ss_4nc_u0 - 0.0 pfa_ss_4nc_u0_y - 295.0 pfa_ss_4nc_v0 - 0.0 pfa_ss_4nc_v0_y - 295.0 pfa_ss_4nc_u1 - 0.0 pfa_ss_4nc_u1_y - 295.0 pfa_ss_4nc_v1 - 0.0 pfa_ss_4nc_v1_y - 295.0 ser_ss_4nc_u0 - 0.0 ser_ss_4nc_u0_y - 295.0 ser_ss_4nc_v0 - 0.0 ser_ss_4nc_v0_y - 295.0 ser_ss_4nc_u1 - 0.0 ser_ss_4nc_u1_y - 295.0 ser_ss_4nc_v1 - 0.0 ser_ss_4nc_v1_y <= 0
c190: 0.0 dist_np_4nc_combi_0_0_m_flow + 0.0 dist_np_4nc_combi_0_0_y + 1.0 dist_np_4nc_combi_0_0_delp + 0.0 dist_np_4nc_combi_1_0_m_flow + 0.0 dist_np_4nc_combi_1_0_y + 1.0 dist_np_4nc_combi_1_0_delp + 0.0 dist_np_4nc_combi_2_0_m_flow + 0.0 dist_np_4nc_combi_2_0_y + 1.0 dist_np_4nc_combi_2_0_delp + 0.0 dist_np_4nc_combi_3_0_m_flow + 0.0 dist_np_4nc_combi_3_0_y + 1.0 dist_np_4nc_combi_3_0_delp + 0.0 dist_np_4nc_combi_4_0_m_flow + 0.0 dist_np_4nc_combi_4_0_y + 1.0 dist_np_4nc_combi_4_0_delp + 0.0 dist_np_4nc_combi_5_0_m_flow + 0.0 dist_np_4nc_combi_5_0_y + 1.0 dist_np_4nc_combi_5_0_delp + 0.0 dist_np_4nc_combi_6_0_m_flow + 0.0 dist_np_4nc_combi_6_0_y + 1.0 dist_np_4nc_combi_6_0_delp - 1.0 para_nwk_con_4nc_delp - 0.0 para_nwk_con_4nc_y >= 0
c191: 590.0 ch_e_f_c_4nc_m_perc + 0.0 ch_e_f_c_4nc_y - 1.0 dist_np_4nc_combi_0_0_m_flow - 0.0 dist_np_4nc_combi_0_0_y - 0.0 dist_np_4nc_combi_0_0_delp - 1.0 dist_np_4nc_combi_1_0_m_flow - 0.0 dist_np_4nc_combi_1_0_y - 0.0 dist_np_4nc_combi_1_0_delp - 1.0 dist_np_4nc_combi_2_0_m_flow - 0.0 dist_np_4nc_combi_2_0_y - 0.0 dist_np_4nc_combi_2_0_delp - 1.0 dist_np_4nc_combi_3_0_m_flow - 0.0 dist_np_4nc_combi_3_0_y - 0.0 dist_np_4nc_combi_3_0_delp - 1.0 dist_np_4nc_combi_4_0_m_flow - 0.0 dist_np_4nc_combi_4_0_y - 0.0 dist_np_4nc_combi_4_0_delp - 1.0 dist_np_4nc_combi_5_0_m_flow - 0.0 dist_np_4nc_combi_5_0_y - 0.0 dist_np_4nc_combi_5_0_delp - 1.0 dist_np_4nc_combi_6_0_m_flow - 0.0 dist_np_4nc_combi_6_0_y - 0.0 dist_np_4nc_combi_6_0_delp - 295.0 cp_nwk_4nc_u0 - 0.0 cp_nwk_4nc_u0_y - 295.0 cp_nwk_4nc_v0 - 0.0 cp_nwk_4nc_v0_y - 295.0 cp_nwk_4nc_u1 - 0.0 cp_nwk_4nc_u1_y - 295.0 cp_nwk_4nc_v1 - 0.0 cp_nwk_4nc_v1_y = 0
c192: 288.0 ch_evap_ret_4nc_t_in + 0.0 ch_evap_ret_4nc_y - 144.075 cp_nwk_4nc_u0 - 0.0 cp_nwk_4nc_u0_y - 144.075 cp_nwk_4nc_v0 - 0.0 cp_nwk_4nc_v0_y - 159.075 cp_nwk_4nc_u1 + 15.0 cp_nwk_4nc_u1_y - 129.075 cp_nwk_4nc_v1 - 0.0 cp_nwk_4nc_v1_y - 138.075 gv2_ss_4nc_u0 - 0.7263922518159805 gv2_ss_4nc_u0_y - 138.075 gv2_ss_4nc_v0 - 0.0 gv2_ss_4nc_v0_y - 140.075 gv2_ss_4nc_u1 + 1.2736077481840193 gv2_ss_4nc_u1_y - 136.075 gv2_ss_4nc_v1 - 0.0 gv2_ss_4nc_v1_y - 138.075 hsb_ss_4nc_u0 - 0.43662126937446233 hsb_ss_4nc_u0_y - 138.075 hsb_ss_4nc_v0 - 0.0 hsb_ss_4nc_v0_y - 140.075 hsb_ss_4nc_u1 + 1.5633787306255376 hsb_ss_4nc_u1_y - 136.075 hsb_ss_4nc_v1 - 0.0 hsb_ss_4nc_v1_y - 138.075 pfa_ss_4nc_u0 - 0.07277021156241038 pfa_ss_4nc_u0_y - 138.075 pfa_ss_4nc_v0 - 0.0 pfa_ss_4nc_v0_y - 140.075 pfa_ss_4nc_u1 + 1.9272297884375895 pfa_ss_4nc_u1_y - 136.075 pfa_ss_4nc_v1 - 0.0 pfa_ss_4nc_v1_y - 138.075 ser_ss_4nc_u0 - 1.4554042312482079e-05 ser_ss_4nc_u0_y - 138.075 ser_ss_4nc_v0 - 0.0 ser_ss_4nc_v0_y - 140.075 ser_ss_4nc_u1 + 1.9999854459576876 ser_ss_4nc_u1_y - 136.075 ser_ss_4nc_v1 - 0.0 ser_ss_4nc_v1_y >= 0

\\Writing additional constraints 
 
\\Writing additional constraints: unit_binary 
 
c193: 1 ch1_4nc_1_evap_u0_y + 1 ch1_4nc_1_evap_u1_y <= 1
c194: 1 ch1_4nc_1_evap_v0_y + 1 ch1_4nc_1_evap_v1_y <= 1
c195: 1 ch2_4nc_1_evap_u0_y + 1 ch2_4nc_1_evap_u1_y <= 1
c196: 1 ch2_4nc_1_evap_v0_y + 1 ch2_4nc_1_evap_v1_y <= 1
c197: 1 ch3_4nc_1_evap_u0_y + 1 ch3_4nc_1_evap_u1_y <= 1
c198: 1 ch3_4nc_1_evap_v0_y + 1 ch3_4nc_1_evap_v1_y <= 1
c199: 1 cp_nwk_4nc_u0_y + 1 cp_nwk_4nc_u1_y <= 1
c200: 1 cp_nwk_4nc_v0_y + 1 cp_nwk_4nc_v1_y <= 1
c201: 1 gv2_ss_4nc_u0_y + 1 gv2_ss_4nc_u1_y <= 1
c202: 1 gv2_ss_4nc_v0_y + 1 gv2_ss_4nc_v1_y <= 1
c203: 1 hsb_ss_4nc_u0_y + 1 hsb_ss_4nc_u1_y <= 1
c204: 1 hsb_ss_4nc_v0_y + 1 hsb_ss_4nc_v1_y <= 1
c205: 1 pfa_ss_4nc_u0_y + 1 pfa_ss_4nc_u1_y <= 1
c206: 1 pfa_ss_4nc_v0_y + 1 pfa_ss_4nc_v1_y <= 1
c207: 1 ser_ss_4nc_u0_y + 1 ser_ss_4nc_u1_y <= 1
c208: 1 ser_ss_4nc_v0_y + 1 ser_ss_4nc_v1_y <= 1
c209: 1 ch1_4nc_1_evap_y <= 1
c210: 1 ch2_4nc_1_evap_y <= 1
c211: 1 ch3_4nc_1_evap_y <= 1
c212: 1 ch1_enwk_4nc_1_y <= 1
c213: 1 ch2_enwk_4nc_1_y <= 1
c214: 1 ch3_enwk_4nc_1_y <= 1
c215: 1 ch1_ep_4nc_1_y <= 1
c216: 1 ch2_ep_4nc_1_y <= 1
c217: 1 ch3_ep_4nc_1_y <= 1
c218: 1 ice_nwk_4nc_1_y <= 1
c219: 1 gv2_nwk_4nc_1_y <= 1
c220: 1 hsb_nwk_4nc_1_y <= 1
c221: 1 tro_nwk_4nc_1_y <= 1
c222: 1 pfa_nwk_4nc_1_y <= 1
c223: 1 ser_nwk_4nc_1_y <= 1
c224: 1 dist_np_4nc_combi_0_0_y + 1 dist_np_4nc_combi_1_0_y + 1 dist_np_4nc_combi_2_0_y + 1 dist_np_4nc_combi_3_0_y + 1 dist_np_4nc_combi_4_0_y + 1 dist_np_4nc_combi_5_0_y + 1 dist_np_4nc_combi_6_0_y <= 1

\\Writing additional constraints: unit_binary_equality 
 
c225: 1 ch1_4nc_1_evap_u0_y + 1 ch1_4nc_1_evap_v0_y + 1 ch1_4nc_1_evap_u1_y + 1 ch1_4nc_1_evap_v1_y - 2 ch1_4nc_1_evap_y = 0
c226: 1 ch2_4nc_1_evap_u0_y + 1 ch2_4nc_1_evap_v0_y + 1 ch2_4nc_1_evap_u1_y + 1 ch2_4nc_1_evap_v1_y - 2 ch2_4nc_1_evap_y = 0
c227: 1 ch3_4nc_1_evap_u0_y + 1 ch3_4nc_1_evap_v0_y + 1 ch3_4nc_1_evap_u1_y + 1 ch3_4nc_1_evap_v1_y - 2 ch3_4nc_1_evap_y = 0
c228: 1 cp_nwk_4nc_u0_y + 1 cp_nwk_4nc_v0_y + 1 cp_nwk_4nc_u1_y + 1 cp_nwk_4nc_v1_y - 2 cp_nwk_4nc_y = 0
c229: 1 gv2_ss_4nc_u0_y + 1 gv2_ss_4nc_v0_y + 1 gv2_ss_4nc_u1_y + 1 gv2_ss_4nc_v1_y - 2 gv2_ss_4nc_y = 0
c230: 1 hsb_ss_4nc_u0_y + 1 hsb_ss_4nc_v0_y + 1 hsb_ss_4nc_u1_y + 1 hsb_ss_4nc_v1_y - 2 hsb_ss_4nc_y = 0
c231: 1 pfa_ss_4nc_u0_y + 1 pfa_ss_4nc_v0_y + 1 pfa_ss_4nc_u1_y + 1 pfa_ss_4nc_v1_y - 2 pfa_ss_4nc_y = 0
c232: 1 ser_ss_4nc_u0_y + 1 ser_ss_4nc_v0_y + 1 ser_ss_4nc_u1_y + 1 ser_ss_4nc_v1_y - 2 ser_ss_4nc_y = 0

\\Writing additional constraints: stream_limit_modified 
 
c233: 295.0 ch1_4nc_1_evap_u0 - 109.19515675 ch1_4nc_1_evap_u0_y + 295.0 ch1_4nc_1_evap_v0 + 0.0 ch1_4nc_1_evap_v0_y + 295.0 ch1_4nc_1_evap_u1 - 109.19515675 ch1_4nc_1_evap_u1_y + 295.0 ch1_4nc_1_evap_v1 + 0.0 ch1_4nc_1_evap_v1_y >= 0
c234: 295.0 ch2_4nc_1_evap_u0 - 410.22658895 ch2_4nc_1_evap_u0_y + 295.0 ch2_4nc_1_evap_v0 + 0.0 ch2_4nc_1_evap_v0_y + 295.0 ch2_4nc_1_evap_u1 - 410.22658895 ch2_4nc_1_evap_u1_y + 295.0 ch2_4nc_1_evap_v1 + 0.0 ch2_4nc_1_evap_v1_y >= 0
c235: 295.0 ch3_4nc_1_evap_u0 - 410.22658895 ch3_4nc_1_evap_u0_y + 295.0 ch3_4nc_1_evap_v0 + 0.0 ch3_4nc_1_evap_v0_y + 295.0 ch3_4nc_1_evap_u1 - 410.22658895 ch3_4nc_1_evap_u1_y + 295.0 ch3_4nc_1_evap_v1 + 0.0 ch3_4nc_1_evap_v1_y >= 0
c236: 0.01642977629679675 ch1_ep_4nc_1_m_flow + 0.0 ch1_ep_4nc_1_y + 1 ch1_ep_4nc_1_delp <= 12.3463827922
c237: 0.011014262430158663 ch2_ep_4nc_1_m_flow + 0.0 ch2_ep_4nc_1_y + 1 ch2_ep_4nc_1_delp <= 21.4327511013
c238: 0.011014262430158663 ch3_ep_4nc_1_m_flow + 0.0 ch3_ep_4nc_1_y + 1 ch3_ep_4nc_1_delp <= 21.4327511013
c239: 0.015650263985336702 dist_np_4nc_combi_0_0_m_flow + 0.0 dist_np_4nc_combi_0_0_y + 1 dist_np_4nc_combi_0_0_delp <= 34.0585340963
c240: 0.0483851457282987 dist_np_4nc_combi_1_0_m_flow + 0.0 dist_np_4nc_combi_1_0_y + 1 dist_np_4nc_combi_1_0_delp <= 46.1796318122
c241: 0.019894118806164172 dist_np_4nc_combi_2_0_m_flow + 0.0 dist_np_4nc_combi_2_0_y + 1 dist_np_4nc_combi_2_0_delp <= 50.3198893609
c242: 0.01381832039734728 dist_np_4nc_combi_3_0_m_flow + 0.0 dist_np_4nc_combi_3_0_y + 1 dist_np_4nc_combi_3_0_delp <= 58.2250275059
c243: 0.007755557609803185 dist_np_4nc_combi_4_0_m_flow + 0.0 dist_np_4nc_combi_4_0_y + 1 dist_np_4nc_combi_4_0_delp <= 73.1928514998
c244: 0.04639114698064178 dist_np_4nc_combi_5_0_m_flow + 0.0 dist_np_4nc_combi_5_0_y + 1 dist_np_4nc_combi_5_0_delp <= 35.2618445622
c245: 0.015650263985336702 dist_np_4nc_combi_6_0_m_flow + 0.0 dist_np_4nc_combi_6_0_y + 1 dist_np_4nc_combi_6_0_delp <= 34.0585340963
c246: 0.6883333333333335 gv2_ss_4nc_u0 - 0.2 gv2_ss_4nc_u0_y + 0.6883333333333335 gv2_ss_4nc_v0 + 0.0 gv2_ss_4nc_v0_y + 0.6883333333333335 gv2_ss_4nc_u1 - 0.2 gv2_ss_4nc_u1_y + 0.6883333333333335 gv2_ss_4nc_v1 + 0.0 gv2_ss_4nc_v1_y >= 0
c247: 1.1451572222222224 hsb_ss_4nc_u0 - 0.1 hsb_ss_4nc_u0_y + 1.1451572222222224 hsb_ss_4nc_v0 + 0.0 hsb_ss_4nc_v0_y + 1.1451572222222224 hsb_ss_4nc_u1 - 0.1 hsb_ss_4nc_u1_y + 1.1451572222222224 hsb_ss_4nc_v1 + 0.0 hsb_ss_4nc_v1_y >= 0
c248: 6.870943333333335 pfa_ss_4nc_u0 - 0.14285714285714285 pfa_ss_4nc_u0_y + 6.870943333333335 pfa_ss_4nc_v0 + 0.0 pfa_ss_4nc_v0_y + 6.870943333333335 pfa_ss_4nc_u1 - 0.14285714285714285 pfa_ss_4nc_u1_y + 6.870943333333335 pfa_ss_4nc_v1 + 0.0 pfa_ss_4nc_v1_y >= 0
c249: 34354.716666666674 ser_ss_4nc_u0 - 0.14285714285714285 ser_ss_4nc_u0_y + 34354.716666666674 ser_ss_4nc_v0 + 0.0 ser_ss_4nc_v0_y + 34354.716666666674 ser_ss_4nc_u1 - 0.14285714285714285 ser_ss_4nc_u1_y + 34354.716666666674 ser_ss_4nc_v1 + 0.0 ser_ss_4nc_v1_y >= 0

\\Writing additional constraints: bilinear_limits_fmin_util 
 
c250: 2379.0641291666707 ch1_4nc_1_evap_u0 + 0.0 ch1_4nc_1_evap_u0_y + 2379.0641291666707 ch1_4nc_1_evap_v0 + 0.0 ch1_4nc_1_evap_v0_y - 2379.0641291666707 ch1_4nc_1_evap_u1 + 4758.128258333341 ch1_4nc_1_evap_u1_y + 7137.192387500012 ch1_4nc_1_evap_v1 + 0.0 ch1_4nc_1_evap_v1_y  - 0.0 ch1_4nc_1_evap_y >= 0
c251: 2379.0641291666707 ch2_4nc_1_evap_u0 + 0.0 ch2_4nc_1_evap_u0_y + 2379.0641291666707 ch2_4nc_1_evap_v0 + 0.0 ch2_4nc_1_evap_v0_y - 2379.0641291666707 ch2_4nc_1_evap_u1 + 4758.128258333341 ch2_4nc_1_evap_u1_y + 7137.192387500012 ch2_4nc_1_evap_v1 + 0.0 ch2_4nc_1_evap_v1_y  - 0.0 ch2_4nc_1_evap_y >= 0
c252: 2379.0641291666707 ch3_4nc_1_evap_u0 + 0.0 ch3_4nc_1_evap_u0_y + 2379.0641291666707 ch3_4nc_1_evap_v0 + 0.0 ch3_4nc_1_evap_v0_y - 2379.0641291666707 ch3_4nc_1_evap_u1 + 4758.128258333341 ch3_4nc_1_evap_u1_y + 7137.192387500012 ch3_4nc_1_evap_v1 + 0.0 ch3_4nc_1_evap_v1_y  - 0.0 ch3_4nc_1_evap_y >= 0

\\Writing additional constraints: bilinear_limits_fmax_util 
 
c253: 2379.0641291666707 ch1_4nc_1_evap_u0 + 0.0 ch1_4nc_1_evap_u0_y + 2379.0641291666707 ch1_4nc_1_evap_v0 + 0.0 ch1_4nc_1_evap_v0_y - 2379.0641291666707 ch1_4nc_1_evap_u1 + 4758.128258333341 ch1_4nc_1_evap_u1_y + 7137.192387500012 ch1_4nc_1_evap_v1 + 0.0 ch1_4nc_1_evap_v1_y - 2000.0 ch1_4nc_1_evap_y <= 0
c254: 2379.0641291666707 ch2_4nc_1_evap_u0 + 0.0 ch2_4nc_1_evap_u0_y + 2379.0641291666707 ch2_4nc_1_evap_v0 + 0.0 ch2_4nc_1_evap_v0_y - 2379.0641291666707 ch2_4nc_1_evap_u1 + 4758.128258333341 ch2_4nc_1_evap_u1_y + 7137.192387500012 ch2_4nc_1_evap_v1 + 0.0 ch2_4nc_1_evap_v1_y - 7330.0 ch2_4nc_1_evap_y <= 0
c255: 2379.0641291666707 ch3_4nc_1_evap_u0 + 0.0 ch3_4nc_1_evap_u0_y + 2379.0641291666707 ch3_4nc_1_evap_v0 + 0.0 ch3_4nc_1_evap_v0_y - 2379.0641291666707 ch3_4nc_1_evap_u1 + 4758.128258333341 ch3_4nc_1_evap_u1_y + 7137.192387500012 ch3_4nc_1_evap_v1 + 0.0 ch3_4nc_1_evap_v1_y - 7330.0 ch3_4nc_1_evap_y <= 0

\\Writing additional constraints: bilinear_limits_fmax_proc, equality 
 

Binary 
 
ch1_4nc_1_evap_y
ch2_4nc_1_evap_y
ch3_4nc_1_evap_y
ch1_enwk_4nc_1_y
ch2_enwk_4nc_1_y
ch3_enwk_4nc_1_y
ch1_ep_4nc_1_y
ch2_ep_4nc_1_y
ch3_ep_4nc_1_y
sp1_temp_4nc_y
cp_nwk_4nc_y
ice_nwk_4nc_1_y
gv2_nwk_4nc_1_y
hsb_nwk_4nc_1_y
tro_nwk_4nc_1_y
pfa_nwk_4nc_1_y
ser_nwk_4nc_1_y
para_nwk_con_4nc_y
dist_np_4nc_combi_0_0_y
dist_np_4nc_combi_1_0_y
dist_np_4nc_combi_2_0_y
dist_np_4nc_combi_3_0_y
dist_np_4nc_combi_4_0_y
dist_np_4nc_combi_5_0_y
dist_np_4nc_combi_6_0_y
gv2_ss_4nc_y
hsb_ss_4nc_y
pfa_ss_4nc_y
ser_ss_4nc_y
ch1_4nc_1_evap_u0_y
ch1_4nc_1_evap_v0_y
ch1_4nc_1_evap_u1_y
ch1_4nc_1_evap_v1_y
ch2_4nc_1_evap_u0_y
ch2_4nc_1_evap_v0_y
ch2_4nc_1_evap_u1_y
ch2_4nc_1_evap_v1_y
ch3_4nc_1_evap_u0_y
ch3_4nc_1_evap_v0_y
ch3_4nc_1_evap_u1_y
ch3_4nc_1_evap_v1_y
cp_nwk_4nc_u0_y
cp_nwk_4nc_v0_y
cp_nwk_4nc_u1_y
cp_nwk_4nc_v1_y
gv2_ss_4nc_u0_y
gv2_ss_4nc_v0_y
gv2_ss_4nc_u1_y
gv2_ss_4nc_v1_y
hsb_ss_4nc_u0_y
hsb_ss_4nc_v0_y
hsb_ss_4nc_u1_y
hsb_ss_4nc_v1_y
pfa_ss_4nc_u0_y
pfa_ss_4nc_v0_y
pfa_ss_4nc_u1_y
pfa_ss_4nc_v1_y
ser_ss_4nc_u0_y
ser_ss_4nc_v0_y
ser_ss_4nc_u1_y
ser_ss_4nc_v1_y

End 
